c ---- [ banner ] ------------------------------------------------------------
c
c Kissat SAT Solver
c 
c Copyright (c) 2021-2024 Armin Biere University of Freiburg
c Copyright (c) 2019-2021 Armin Biere Johannes Kepler University Linz
c 
c Version 4.0.1 43f02cf3e992cb44653b35e5cb26f93281552ae0
c gcc (Ubuntu 13.2.0-23ubuntu4) 13.2.0 -W -Wall -O3 -DNDEBUG
c Thu Sep 12 12:27:46 CEST 2024 Linux abryzen9 6.8.0-41-generic x86_64
c
c ---- [ parsing ] -----------------------------------------------------------
c
c opened and reading DIMACS file:
c
c   /data/artifact/AMulet2.0_artifact/exp4/cnf_resyn3_64/64_64_U_SP_WT_KS_GenMul_resyn3.cnf
c
c parsed 'p cnf 28475 123287' header
c closing input after reading 2431713 bytes (2 MB)
c finished parsing after 0.03 seconds
c
c ---- [ options ] -----------------------------------------------------------
c
c --stable=0                       (different from default '1')
c
c ---- [ solving ] -----------------------------------------------------------
c
c  seconds switched rate     size/glue tier1  binary           remaining
c         MB reductions conflicts size  tier2     irredundant
c          level restarts redundant glue  trail           variables
c
c *  0.03 10 0 0 0  0 0   0   0 0.0 0 0 0 0 0% 14703 108582 28472 100%
c (  0.06 12 0 0 0  0 0   0   0 0.0 0 0 0 0 0% 14703 108582 28472 100%
c .  0.07 12 0 0 0  0 0   0   0 0.0 0 0 0 0 0% 14699 108582 28472 100%
c c  0.15 17 0 0 0  0 0   0   0 0.0 0 0 0 0 0% 14718 108581 28470 100%
c d  0.15 17 0 0 0  0 0   0   0 0.0 0 0 0 0 0% 14714 108581 28470 100%
c f  0.32 16 0 0 0  0 0   0   0 0.0 0 0 0 0 0% 19356 101268 31101 109%
c e  0.50 23 0 0 0  0 0   0   0 0.0 0 0 0 0 0% 13555 109206 22353 79%
c )  0.50 23 0 0 0  0 0   0   0 0.0 0 0 0 0 0% 13555 109206 22353 79%
c {  0.53 25 0 0 0  0 0   0   0 0.0 0 0 2 6 0% 13555 109206 22353 79%
c -  0.84 25 273 0 1 334 55 1000 690 4.7 24 5 3 13 20% 13698 109206 22353 79%
c -  1.07 25 187 0 2 462 42 2000 1351 4.3 23 5 2 7 17% 13729 109206 22353 79%
c d  1.25 25 179 0 2 530 40 2504 1722 4.3 23 5 2 7 18% 13728 109206 22338 78%
c u  1.27 25 179 0 2 530 40 2504 1496 4.3 23 5 2 7 18% 13731 109206 22338 78%
c v  1.30 25 179 0 2 530 40 2504 1090 4.3 23 5 2 7 18% 13731 109206 22338 78%
c w  1.34 25 179 0 2 530 40 2504 1086 4.3 23 5 2 7 18% 13731 109206 22338 78%
c x  1.36 25 179 0 2 530 40 2504 1086 4.3 23 5 2 7 18% 13731 109161 22338 78%
c t  1.38 25 179 0 2 530 40 2504 1086 4.3 23 5 2 7 18% 13729 109161 22338 78%
c f  1.42 25 179 0 2 530 40 2504 1086 4.3 23 5 2 7 18% 14352 107915 22909 80%
c c  1.51 23 179 0 2 530 40 2504 1073 4.3 23 5 2 7 18% 14368 107875 22904 80%
c d  1.52 23 179 0 2 530 40 2504 1073 4.3 23 5 2 7 18% 14358 107875 22904 80%
c
c  seconds   switched   rate       size/glue tier1    binary           remaining
c         MB  reductions conflicts       size  tier2      irredundant
c           level restarts    redundant    glue   trail           variables
c
c u  1.53 23 179 0 2 530 40 2504 1031 4.3 23 5 2 7 18% 14358 107875 22904 80%
c v  1.55 23 179 0 2 530 40 2504 973 4.3 23 5 2 7 18% 14358 107875 22904 80%
c w  1.60 23 179 0 2 530 40 2504 947 4.3 23 5 2 7 18% 14358 107875 22904 80%
c f  1.77 25 179 0 2 530 40 2504 947 4.3 23 5 2 7 18% 14398 107813 22925 81%
c -  1.91 26 309 0 3 603 38 3414 1527 3.9 20 5 2 7 19% 14451 107813 22925 81%
c -  2.48 28 302 0 4 921 37 5146 2632 3.9 21 5 2 8 21% 14536 107813 22925 81%
c -  3.08 28 317 0 5 1179 37 7146 3676 4.2 23 6 2 7 21% 14697 107813 22925 81%
c d  3.26 28 307 0 5 1271 37 7712 4104 4.2 24 6 2 7 21% 14642 107813 22875 80%
c u  3.29 28 307 0 5 1271 37 7712 3565 4.2 24 6 2 7 21% 14652 107813 22875 80%
c v  3.33 28 307 0 5 1271 37 7712 3023 4.2 24 6 2 7 21% 14654 107813 22875 80%
c w  3.40 28 307 0 5 1271 37 7712 3009 4.2 24 6 2 7 21% 14654 107813 22875 80%
c d  3.41 28 307 0 5 1271 37 7712 3009 4.2 24 6 2 7 21% 14650 107813 22873 80%
c t  3.43 28 307 0 5 1271 37 7712 3009 4.2 24 6 2 7 21% 14631 107813 22873 80%
c f  3.48 28 307 0 5 1271 37 7712 3009 4.2 24 6 2 7 21% 16752 104614 23933 84%
c u  3.53 28 307 0 5 1271 37 7712 2935 4.2 24 6 2 7 21% 16754 104614 23933 84%
c v  3.56 28 307 0 5 1271 37 7712 2840 4.2 24 6 2 7 21% 16754 104614 23933 84%
c w  3.61 28 307 0 5 1271 37 7712 2831 4.2 24 6 2 7 21% 16754 104614 23933 84%
c x  3.66 28 307 0 5 1271 37 7712 2831 4.2 24 6 2 7 21% 16755 104605 23933 84%
c t  3.68 28 307 0 5 1271 37 7712 2831 4.2 24 6 2 7 21% 16710 104605 23933 84%
c f  3.74 28 307 0 5 1271 37 7712 2831 4.2 24 6 2 7 21% 18587 101782 24877 87%
c
c  seconds   switched    rate       size/glue tier1    binary           remaining
c         MB  reductions  conflicts       size  tier2      irredundant
c           level  restarts    redundant    glue   trail           variables
c
c -  4.17 28 299 0 6 1431 35 9382 3712 4.1 23 6 2 8 22% 18658 101782 24877 87%
c o  4.34 28 311 0 6 1494 35 10046 4293 4.1 23 6 2 8 22% 18691 101782 24877 87%
c -  5.27 28 310 0 7 1813 38 11832 5100 4.5 28 6 2 8 23% 18767 101782 24877 87%
c s  5.59 28 307 0 7 1882 37 12517 5719 4.5 28 6 2 8 24% 18792 101433 24877 87%
c e  5.74 28 307 0 7 1882 37 12517 5719 4.5 28 6 2 8 24% 17437 102516 23764 83%
c s  5.74 28 307 0 7 1882 37 12517 5719 4.5 28 6 2 8 24% 17445 102181 23764 83%
c e  5.76 28 307 0 7 1882 37 12517 5719 4.5 28 6 2 8 24% 17372 102232 23730 83%
c ^  5.76 28 307 0 7 1882 37 12517 5719 4.5 28 6 2 8 24% 17372 102232 23730 83%
c -  6.23 28 320 0 8 2026 36 14477 6165 4.4 27 6 2 8 24% 17468 102231 23730 83%
c c  6.52 28 334 0 8 2104 35 15797 7266 4.3 27 6 2 8 24% 17539 102169 23710 83%
c d  6.53 28 334 0 8 2104 35 15797 7244 4.3 27 6 2 8 24% 17083 102169 23466 82%
c u  6.58 28 334 0 8 2104 35 15797 6429 4.3 27 6 2 8 24% 17100 102169 23466 82%
c v  6.65 28 334 0 8 2104 35 15797 5532 4.3 27 6 2 8 24% 17101 102169 23466 82%
c w  6.75 28 334 0 8 2104 35 15797 5502 4.3 27 6 2 8 24% 17101 102169 23466 82%
c =  7.02 28 334 0 8 2104 35 15797 5502 4.3 27 6 2 8 24% 17115 102169 23459 82%
c d  7.04 28 334 0 8 2104 35 15797 5499 4.3 27 6 2 8 24% 17093 102169 23455 82%
c t  7.06 28 334 0 8 2104 35 15797 5499 4.3 27 6 2 8 24% 17026 102169 23455 82%
c f  7.12 28 334 0 8 2104 35 15797 5499 4.3 27 6 2 8 24% 17038 101875 23591 83%
c u  7.17 28 334 0 8 2104 35 15797 5337 4.3 27 6 2 8 24% 17044 101875 23591 83%
c v  7.21 28 334 0 8 2104 35 15797 5234 4.3 27 6 2 8 24% 17044 101875 23591 83%
c
c  seconds   switched    rate        size/glue tier1    binary           remaining
c         MB  reductions   conflicts       size  tier2      irredundant
c           level  restarts     redundant    glue   trail           variables
c
c w  7.31 28 334 0 8 2104 35 15797 5222 4.3 27 6 2 8 24% 17044 101875 23591 83%
c d  7.32 28 334 0 8 2104 35 15797 5220 4.3 27 6 2 8 24% 17037 101875 23587 83%
c t  7.35 28 334 0 8 2104 35 15797 5220 4.3 27 6 2 8 24% 17030 101875 23587 83%
c -  7.94 28 327 0 9 2293 35 17305 5816 4.4 28 6 2 8 24% 17068 101875 23587 83%
c o  8.61 28 324 0 9 2511 35 20108 8206 4.4 27 6 2 8 24% 17195 101874 23587 83%
c -  8.73 28 323 0 10 2556 35 20305 7447 4.4 28 6 2 7 24% 17199 101873 23587 83%
c -  9.31 28 334 0 11 2745 34 23468 9054 4.4 27 6 2 7 23% 17416 101866 23587 83%
c s 10.04 28 336 0 11 2954 35 25030 10435 4.4 29 7 2 7 24% 17462 101703 23587 83%
c e 10.18 28 336 0 11 2954 35 25030 10435 4.4 29 7 2 7 24% 13299 108023 21123 74%
c s 10.20 28 336 0 11 2954 35 25030 10435 4.4 29 7 2 7 24% 13329 107646 21123 74%
c e 10.22 28 336 0 11 2954 35 25030 10435 4.4 29 7 2 7 24% 13238 107728 21081 74%
c ^ 10.22 28 336 0 11 2954 35 25030 10435 4.4 29 7 2 7 24% 13238 107728 21081 74%
c - 10.55 28 351 0 12 3064 34 26784 9089 4.3 28 6 2 7 24% 13311 107725 21081 74%
c d 10.60 28 352 0 12 3080 34 26934 9211 4.3 28 6 2 7 24% 12865 107719 20811 73%
c u 10.66 28 352 0 12 3080 34 26934 7989 4.3 28 6 2 7 24% 12886 107719 20811 73%
c v 10.71 28 352 0 12 3080 34 26934 7165 4.3 28 6 2 7 24% 12888 107719 20811 73%
c w 10.74 28 352 0 12 3080 34 26934 7157 4.3 28 6 2 7 24% 12888 107719 20811 73%
c x 10.84 28 352 0 12 3080 34 26934 7157 4.3 28 6 2 7 24% 12892 106945 20811 73%
c = 11.12 28 352 0 12 3080 34 26934 7157 4.3 28 6 2 7 24% 14220 106945 20147 71%
c d 11.13 28 352 0 12 3080 34 26934 7057 4.3 28 6 2 7 24% 12820 106945 20147 71%
c
c  seconds   switched     rate        size/glue tier1    binary           remaining
c         MB   reductions   conflicts       size  tier2      irredundant
c           level   restarts     redundant    glue   trail           variables
c
c t 11.15 28 352 0 12 3080 34 26934 7057 4.3 28 6 2 7 24% 12793 106945 20147 71%
c f 11.24 28 352 0 12 3080 34 26934 7057 4.3 28 6 2 7 24% 12834 106784 20180 71%
c u 11.31 28 352 0 12 3080 34 26934 6793 4.3 28 6 2 7 24% 12835 106784 20180 71%
c v 11.34 28 352 0 12 3080 34 26934 6663 4.3 28 6 2 7 24% 12835 106784 20180 71%
c w 11.37 28 352 0 12 3080 34 26934 6660 4.3 28 6 2 7 24% 12835 106784 20180 71%
c = 11.65 28 352 0 12 3080 34 26934 6660 4.3 28 6 2 7 24% 14645 106784 19275 68%
c d 11.66 28 352 0 12 3080 34 26934 6608 4.3 28 6 2 7 24% 12775 106784 19275 68%
c t 11.69 28 352 0 12 3080 34 26934 6608 4.3 28 6 2 7 24% 12759 106784 19275 68%
c - 12.52 28 340 0 13 3312 33 30248 8657 4.2 27 7 2 7 24% 12843 106783 19275 68%
c - 13.59 28 319 0 14 3644 32 33853 10698 4.2 27 7 2 7 24% 12938 106783 19275 68%
c - 14.58 28 314 0 15 3987 32 37594 12466 4.2 28 7 2 6 24% 13043 106782 19275 68%
c o 15.49 28 310 0 15 4297 32 40109 14573 4.3 29 7 2 6 24% 13133 106780 19275 68%
c c 15.94 28 308 0 15 4412 32 41275 15580 4.3 29 7 2 6 24% 13307 105669 19094 67%
c d 15.95 28 308 0 15 4412 32 41275 15241 4.3 29 7 2 6 24% 12940 105669 19092 67%
c u 16.05 28 308 0 15 4412 32 41275 13014 4.3 29 7 2 6 24% 12967 105669 19092 67%
c v 16.15 28 308 0 15 4412 32 41275 11532 4.3 29 7 2 6 24% 12969 105669 19092 67%
c w 16.24 28 308 0 15 4412 32 41275 11530 4.3 29 7 2 6 24% 12969 105669 19092 67%
c x 16.34 28 308 0 15 4412 32 41275 11530 4.3 29 7 2 6 24% 12969 99685 19092 67%
c = 16.73 28 308 0 15 4412 32 41275 11530 4.3 29 7 2 6 24% 16195 99681 17479 61%
c d 16.74 28 308 0 15 4412 32 41275 11232 4.3 29 7 2 6 24% 12867 99681 17479 61%
c
c  seconds   switched     rate         size/glue tier1    binary          remaining
c         MB   reductions   conflicts        size  tier2      irredundant
c           level   restarts      redundant    glue   trail          variables
c
c t 16.77 28 308 0 15 4412 32 41275 11232 4.3 29 7 2 6 24% 12740 99681 17479 61%
c f 16.82 28 308 0 15 4412 32 41275 11232 4.3 29 7 2 6 24% 12757 99622 17490 61%
c u 16.91 28 308 0 15 4412 32 41275 10375 4.3 29 7 2 6 24% 12760 99622 17490 61%
c v 16.97 28 308 0 15 4412 32 41275 10113 4.3 29 7 2 6 24% 12760 99622 17490 61%
c w 17.16 28 308 0 15 4412 32 41275 10107 4.3 29 7 2 6 24% 12760 99622 17490 61%
c x 17.26 28 308 0 15 4412 32 41275 10105 4.3 29 7 2 6 24% 12767 90645 17490 61%
c = 17.67 28 308 0 15 4412 32 41275 10105 4.3 29 7 2 6 24% 17339 90627 15204 53%
c d 17.68 28 308 0 15 4412 32 41275 9958 4.3 29 7 2 6 24% 12697 90627 15204 53%
c t 17.71 28 308 0 15 4412 32 41275 9958 4.3 29 7 2 6 24% 12246 90627 15204 53%
c f 17.76 28 308 0 15 4412 32 41275 9958 4.3 29 7 2 6 24% 12335 90294 15280 54%
c - 17.80 28 308 0 16 4422 32 41466 7924 4.3 29 7 1 6 24% 12338 90293 15280 54%
c - 18.32 28 293 0 17 4774 31 45467 9698 4.2 28 7 1 6 24% 12380 90282 15280 54%
c i 18.78 28 284 0 17 5145 30 49259 12932 4.1 28 7 1 6 24% 12490 90278 15279 54%
c - 18.84 28 283 0 18 5184 30 49590 11334 4.1 28 7 1 6 24% 12489 90278 15279 54%
c s 19.19 28 275 0 18 5418 30 52163 13683 4.0 27 7 1 6 24% 12537 71642 15279 54%
c e 19.26 28 275 0 18 5418 30 52163 13683 4.0 27 7 1 6 24% 11549 73442 14458 51%
c 2 19.27 28 275 0 18 5418 30 52163 13683 4.0 27 7 1 6 24% 11526 73442 14458 51%
c s 19.27 28 275 0 18 5418 30 52163 13683 4.0 27 7 1 6 24% 11542 72777 14458 51%
c e 19.28 28 275 0 18 5418 30 52163 13683 4.0 27 7 1 6 24% 11472 72878 14420 51%
c ^ 19.28 28 275 0 18 5418 30 52163 13683 4.0 27 7 1 6 24% 11472 72878 14420 51%
c
c  seconds   switched     rate         size/glue tier1    binary          remaining
c         MB   reductions   conflicts        size  tier2      irredundant
c           level   restarts      redundant    glue   trail          variables
c
c - 19.66 28 271 0 19 5709 30 53833 11030 4.0 28 7 1 5 24% 11486 72877 14420 51%
c - 20.02 28 259 0 20 5931 29 58192 12810 3.9 27 7 1 5 24% 11539 72875 14420 51%
c c 20.20 28 258 0 20 6062 29 58901 13503 3.9 27 7 1 5 25% 11627 72667 14368 50%
c d 20.20 28 258 0 20 6062 29 58901 13461 3.9 27 7 1 5 25% 11523 72667 14368 50%
c u 20.24 28 258 0 20 6062 29 58901 11874 3.9 27 7 1 5 25% 11399 72667 14367 50%
c v 20.29 28 258 0 20 6062 29 58901 10117 3.9 27 7 1 5 25% 11412 72667 14367 50%
c w 20.35 28 258 0 20 6062 29 58901 10060 3.9 27 7 1 5 25% 11409 72667 14367 50%
c x 20.41 28 258 0 20 6062 29 58901 10059 3.9 27 7 1 5 25% 11442 71812 14367 50%
c = 20.64 28 258 0 20 6062 29 58901 10059 3.9 27 7 1 5 25% 12055 71812 14060 49%
c d 20.65 28 258 0 20 6062 29 58901 10045 3.9 27 7 1 5 25% 11419 71812 14059 49%
c t 20.66 28 258 0 20 6062 29 58901 10045 3.9 27 7 1 5 25% 11300 71812 14059 49%
c f 20.69 28 258 0 20 6062 29 58901 10045 3.9 27 7 1 5 25% 11279 71521 14110 50%
c u 20.75 28 258 0 20 6062 29 58901 9703 3.9 27 7 1 5 25% 11286 71521 14110 50%
c v 20.78 28 258 0 20 6062 29 58901 9328 3.9 27 7 1 5 25% 11287 71521 14110 50%
c w 20.86 28 258 0 20 6062 29 58901 9191 3.9 27 7 1 5 25% 11288 71521 14110 50%
c x 20.92 28 258 0 20 6062 29 58901 9191 3.9 27 7 1 5 25% 11297 70117 14110 50%
c d 21.15 28 258 0 20 6062 29 58901 9191 3.9 27 7 1 5 25% 11295 70113 14109 50%
c t 21.16 28 258 0 20 6062 29 58901 9191 3.9 27 7 1 5 25% 11279 70113 14109 50%
c i 21.17 28 258 0 20 6062 29 58901 9191 3.9 27 7 1 5 25% 11279 70113 14109 50%
c - 21.57 28 251 0 21 6410 28 62665 10797 3.9 27 7 1 5 25% 11309 70112 14109 50%
c
c  seconds   switched     rate         size/glue tier1    binary          remaining
c         MB   reductions   conflicts        size  tier2      irredundant
c           level   restarts      redundant    glue   trail          variables
c
c i 21.69 28 247 0 21 6501 28 64165 12180 3.8 27 7 1 5 24% 11329 70112 14108 50%
c - 22.04 28 242 0 22 6780 28 67247 12923 3.8 26 7 1 5 24% 11373 70111 14108 50%
c o 22.43 28 239 0 22 7100 27 70113 15630 3.8 26 7 1 5 25% 11391 70111 14108 50%
c i 22.46 28 237 0 22 7127 27 70468 15904 3.8 26 7 1 5 24% 11408 70111 14107 50%
c - 22.66 28 235 0 23 7279 27 71937 14375 3.8 26 7 1 5 25% 11440 70109 14107 50%
c - 23.29 28 229 0 24 7757 27 76735 15894 3.7 26 7 1 5 25% 11464 70108 14107 50%
c i 23.30 28 228 0 24 7757 27 76840 15980 3.7 26 7 1 5 25% 11470 70108 14106 50%
c i 23.33 28 226 0 24 7785 26 77662 16700 3.7 26 7 1 5 25% 11488 70108 14105 50%
c d 23.60 28 221 0 24 7971 26 79983 18788 3.6 26 7 1 5 25% 11521 70071 14102 50%
c d 23.60 28 221 0 24 7971 26 79983 18780 3.6 26 7 1 5 25% 11510 70071 14096 50%
c u 23.65 28 221 0 24 7971 26 79983 17077 3.6 26 7 1 5 25% 11544 70071 14096 50%
c v 23.72 28 221 0 24 7971 26 79983 15158 3.6 26 7 1 5 25% 11552 70071 14096 50%
c w 23.76 28 221 0 24 7971 26 79983 15155 3.6 26 7 1 5 25% 11552 70071 14096 50%
c x 23.82 28 221 0 24 7971 26 79983 15146 3.6 26 7 1 5 25% 11561 69518 14096 50%
c d 23.83 28 221 0 24 7971 26 79983 15146 3.6 26 7 1 5 25% 11553 69518 14092 49%
c t 23.84 28 221 0 24 7971 26 79983 15146 3.6 26 7 1 5 25% 11486 69518 14092 49%
c f 23.85 28 221 0 24 7971 26 79983 15146 3.6 26 7 1 5 25% 11482 69517 14093 49%
c u 23.92 28 221 0 24 7971 26 79983 14717 3.6 26 7 1 5 25% 11487 69517 14093 49%
c v 23.98 28 221 0 24 7971 26 79983 13822 3.6 26 7 1 5 25% 11489 69517 14093 49%
c w 24.04 28 221 0 24 7971 26 79983 13741 3.6 26 7 1 5 25% 11489 69517 14093 49%
c
c  seconds   switched     rate         size/glue tier1    binary          remaining
c         MB   reductions   conflicts        size  tier2      irredundant
c           level   restarts      redundant    glue   trail          variables
c
c x 24.10 28 221 0 24 7971 26 79983 13736 3.6 26 7 1 5 25% 11496 69267 14093 49%
c d 24.32 28 221 0 24 7971 26 79983 13735 3.6 26 7 1 5 25% 11490 69267 14090 49%
c t 24.33 28 221 0 24 7971 26 79983 13735 3.6 26 7 1 5 25% 11483 69267 14090 49%
c - 24.60 28 220 0 25 8203 26 81633 12898 3.6 26 7 1 5 25% 11495 69266 14090 49%
c i 24.75 28 219 0 25 8333 26 82550 13748 3.7 26 7 1 5 25% 11505 69265 14089 49%
c i 24.82 28 218 0 25 8395 26 83487 14583 3.6 26 7 1 5 25% 11522 69265 14088 49%
c - 25.35 28 214 0 26 8841 26 86634 14703 3.6 26 7 1 5 25% 11541 69265 14088 49%
c i 25.42 28 214 0 26 8911 26 87291 15283 3.6 26 7 1 5 25% 11553 69265 14087 49%
c - 26.13 28 209 0 27 9522 26 91733 16677 3.6 27 7 1 5 25% 11561 69264 14087 49%
c i 26.31 28 207 0 27 9657 26 93033 17893 3.6 27 7 1 5 25% 11574 69264 14086 49%
c s 26.59 28 203 0 27 9873 26 95855 20456 3.6 27 7 1 5 25% 11633 68619 14086 49%
c e 26.68 28 203 0 27 9873 26 95855 20456 3.6 27 7 1 5 25% 8251 76706 12380 43%
c 2 26.68 28 203 0 27 9873 26 95855 20456 3.6 27 7 1 5 25% 8243 76706 12380 43%
c s 26.69 28 203 0 27 9873 26 95855 20456 3.6 27 7 1 5 25% 8260 76293 12380 43%
c e 26.71 28 203 0 27 9873 26 95855 20456 3.6 27 7 1 5 25% 8213 76412 12348 43%
c ^ 26.71 28 203 0 27 9873 26 95855 20456 3.6 27 7 1 5 25% 8213 76412 12348 43%
c - 26.87 29 202 0 28 9988 25 96931 14053 3.6 27 7 1 5 25% 8216 76410 12348 43%
c i 27.07 29 200 0 28 10156 25 98639 15646 3.6 26 7 1 5 25% 8229 76410 12347 43%
c i 27.25 29 198 0 28 10270 25 100374 17239 3.6 26 7 1 5 25% 8239 76410 12346 43%
c - 27.59 29 198 0 29 10543 25 102223 16063 3.6 27 7 1 5 25% 8235 76410 12346 43%
c
c  seconds   switched      rate          size/glue tier1    binary         remaining
c         MB   reductions    conflicts         size  tier2     irredundant
c           level   restarts        redundant    glue   trail         variables
c
c d 27.90 29 195 0 29 10750 25 104623 18323 3.5 27 8 1 5 25% 8249 76389 12344 43%
c d 27.90 29 195 0 29 10750 25 104623 18315 3.5 27 8 1 5 25% 8241 76387 12340 43%
c u 27.95 29 195 0 29 10750 25 104623 16545 3.5 27 8 1 5 25% 8281 76387 12340 43%
c v 28.01 29 195 0 29 10750 25 104623 14278 3.5 27 8 1 5 25% 8296 76387 12340 43%
c w 28.12 29 195 0 29 10750 25 104623 14219 3.5 27 8 1 5 25% 8296 76387 12340 43%
c x 28.21 29 195 0 29 10750 25 104623 14212 3.5 27 8 1 5 25% 8340 76012 12340 43%
c d 28.22 29 195 0 29 10750 25 104623 14208 3.5 27 8 1 5 25% 8320 76008 12330 43%
c t 28.23 29 195 0 29 10750 25 104623 14208 3.5 27 8 1 5 25% 8178 76008 12330 43%
c f 28.28 29 195 0 29 10750 25 104623 14208 3.5 27 8 1 5 25% 8178 75972 12334 43%
c u 28.32 29 195 0 29 10750 25 104623 13728 3.5 27 8 1 5 25% 8194 75972 12333 43%
c v 28.36 29 195 0 29 10750 25 104623 13173 3.5 27 8 1 5 25% 8194 75972 12333 43%
c w 28.49 29 195 0 29 10750 25 104623 12869 3.5 27 8 1 5 25% 8194 75972 12333 43%
c x 28.56 29 195 0 29 10750 25 104623 12869 3.5 27 8 1 5 25% 8197 75935 12333 43%
c d 28.56 29 195 0 29 10750 25 104623 12866 3.5 27 8 1 5 25% 8195 75931 12332 43%
c t 28.57 29 195 0 29 10750 25 104623 12866 3.5 27 8 1 5 25% 8185 75931 12332 43%
c i 28.58 29 195 0 29 10750 25 104623 12866 3.5 27 8 1 5 25% 8185 75931 12332 43%
c i 28.67 29 194 0 29 10811 25 105708 13870 3.5 27 8 1 5 25% 8191 75931 12331 43%
c i 28.74 29 193 0 29 10874 25 106165 14307 3.5 26 8 1 5 25% 8193 75931 12330 43%
c - 28.88 29 192 0 30 10959 25 107609 13321 3.5 26 8 1 5 25% 8190 75931 12330 43%
c o 29.23 29 190 0 30 11207 24 110118 15720 3.5 26 8 1 5 25% 8194 75931 12330 43%
c
c  seconds   switched      rate          size/glue tier1    binary         remaining
c         MB   reductions    conflicts         size  tier2     irredundant
c           level   restarts        redundant    glue   trail         variables
c
c i 29.62 29 188 0 30 11458 24 112389 17864 3.5 27 8 1 5 25% 8202 75931 12329 43%
c - 29.68 29 187 0 31 11495 24 113086 15721 3.4 27 8 1 5 25% 8200 75930 12329 43%
c - 30.57 29 184 0 32 12135 24 118654 17684 3.4 28 8 1 5 26% 8228 75928 12329 43%
c i 30.77 29 183 0 32 12267 24 120453 19317 3.4 28 8 1 5 26% 8241 75925 12328 43%
c - 31.29 29 181 0 33 12685 24 124310 19009 3.4 28 8 1 5 26% 8245 75924 12328 43%
c i 31.40 29 180 0 33 12754 24 125435 20016 3.4 28 8 1 5 26% 8263 75923 12327 43%
c i 31.85 29 178 0 33 13067 23 128961 23333 3.4 28 8 1 5 26% 8279 75923 12326 43%
c - 31.96 29 177 0 34 13136 23 130054 19983 3.3 28 8 1 5 26% 8276 75923 12326 43%
c i 32.02 29 176 0 34 13169 23 130686 20565 3.3 28 8 1 5 26% 8282 75919 12325 43%
c c 32.37 29 174 0 34 13453 23 132878 22637 3.3 28 8 1 5 26% 8306 75842 12315 43%
c d 32.37 29 174 0 34 13453 23 132878 22625 3.3 28 8 1 5 26% 8305 75823 12315 43%
c d 32.37 29 174 0 34 13453 23 132878 22620 3.3 28 8 1 5 26% 8291 75820 12308 43%
c u 32.42 29 174 0 34 13453 23 132878 20521 3.3 28 8 1 5 26% 8333 75820 12307 43%
c v 32.49 29 174 0 34 13453 23 132878 17483 3.3 28 8 1 5 26% 8351 75820 12307 43%
c w 32.67 29 174 0 34 13453 23 132878 17259 3.3 28 8 1 5 26% 8351 75820 12307 43%
c = 33.16 29 174 0 34 13453 23 132878 17259 3.3 28 8 1 5 26% 8775 75585 12084 42%
c d 33.16 29 174 0 34 13453 23 132878 17030 3.3 28 8 1 5 26% 8316 75575 12084 42%
c t 33.17 29 174 0 34 13453 23 132878 17030 3.3 28 8 1 5 26% 8012 75575 12084 42%
c f 33.18 29 174 0 34 13453 23 132878 17030 3.3 28 8 1 5 26% 8010 75535 12088 42%
c u 33.23 29 174 0 34 13453 23 132878 16227 3.3 28 8 1 5 26% 8058 75535 12088 42%
c
c  seconds   switched      rate          size/glue tier1    binary         remaining
c         MB   reductions    conflicts         size  tier2     irredundant
c           level   restarts        redundant    glue   trail         variables
c
c v 33.27 29 174 0 34 13453 23 132878 15459 3.3 28 8 1 5 26% 8063 75535 12088 42%
c w 33.39 29 174 0 34 13453 23 132878 15172 3.3 28 8 1 5 26% 8063 75535 12088 42%
c x 33.46 29 174 0 34 13453 23 132878 15164 3.3 28 8 1 5 26% 8075 75148 12088 42%
c t 33.47 29 174 0 34 13453 23 132878 15164 3.3 28 8 1 5 26% 8041 75148 12088 42%
c i 33.48 29 174 0 34 13453 23 132878 15164 3.3 28 8 1 5 26% 8041 75148 12088 42%
c i 33.80 29 173 0 34 13684 23 135609 17755 3.3 28 8 1 5 27% 8049 75143 12087 42%
c - 33.82 29 173 0 35 13694 23 135884 15050 3.3 28 8 1 5 27% 8018 75143 12087 42%
c i 33.92 29 172 0 35 13759 23 137656 16655 3.3 27 8 1 5 26% 8035 75138 12086 42%
c i 33.92 29 172 0 35 13759 23 137669 16657 3.3 27 8 1 5 26% 8040 75137 12085 42%
c i 33.92 29 172 0 35 13759 23 137716 16687 3.3 27 8 1 5 26% 8043 75136 12083 42%
c i 33.92 29 171 0 35 13759 23 137989 16921 3.3 27 8 1 5 27% 8049 75136 12082 42%
c i 33.93 29 171 0 35 13760 22 138166 17064 3.3 27 8 1 5 27% 8060 75136 12081 42%
c i 33.94 29 171 0 35 13762 22 138445 17325 3.3 27 8 1 5 27% 8063 75136 12080 42%
c i 33.96 29 171 0 35 13775 22 138739 17569 3.3 27 8 1 5 27% 8074 75135 12079 42%
c i 33.96 29 170 0 35 13784 22 138935 17710 3.3 27 8 1 5 27% 8086 75134 12078 42%
c i 33.98 29 170 0 35 13790 22 139388 18112 3.3 27 8 1 5 26% 8091 75133 12077 42%
c i 33.98 29 170 0 35 13790 22 139424 18140 3.3 27 8 1 5 26% 8095 75133 12076 42%
c i 34.03 29 169 0 35 13843 22 140351 19001 3.3 27 8 1 5 26% 8100 75133 12075 42%
c i 34.08 29 167 0 35 13944 22 141403 19971 3.2 27 8 1 5 26% 8112 75133 12074 42%
c - 34.11 29 167 0 36 13968 22 141801 16677 3.2 27 8 1 5 26% 8036 75133 12074 42%
c
c  seconds   switched      rate          size/glue tier1    binary         remaining
c         MB   reductions    conflicts         size  tier2     irredundant
c           level   restarts        redundant    glue   trail         variables
c
c i 34.14 29 165 0 36 13999 22 142969 17729 3.2 27 8 1 5 26% 8054 75133 12073 42%
c i 34.15 29 165 0 36 14013 22 143200 17932 3.2 27 8 1 5 26% 8060 75133 12072 42%
c i 34.18 29 162 0 36 14028 21 144645 19167 3.2 26 8 1 5 26% 8092 75133 12071 42%
c i 34.18 29 161 0 36 14028 21 145202 19618 3.2 26 8 1 5 25% 8119 75133 12067 42%
c i 34.19 29 161 0 36 14031 21 145271 19680 3.2 26 8 1 5 25% 8119 75133 12064 42%
c i 34.19 29 161 0 36 14031 21 145380 19749 3.2 26 8 1 5 25% 8126 75133 12062 42%
c i 34.19 29 161 0 36 14031 21 145383 19751 3.2 26 8 1 5 25% 8126 75133 12060 42%
c i 34.19 29 161 0 36 14031 21 145388 19752 3.2 26 8 1 5 25% 8128 75133 12057 42%
c i 34.20 29 160 0 36 14031 21 145764 20058 3.2 26 8 1 5 25% 8144 75133 12051 42%
c i 34.20 29 160 0 36 14031 21 145765 20058 3.2 26 8 1 5 25% 8144 75133 12049 42%
c i 34.20 29 160 0 36 14031 21 145768 20060 3.2 26 8 1 5 25% 8144 75133 12046 42%
c i 34.20 29 160 0 36 14031 21 145797 20074 3.2 26 8 1 5 25% 8144 75133 12045 42%
c i 34.20 29 160 0 36 14031 21 145826 20086 3.2 26 8 1 5 25% 8149 75133 12041 42%
c i 34.20 29 160 0 36 14031 21 145832 20086 3.2 26 8 1 5 25% 8152 75133 12032 42%
c i 34.20 29 160 0 36 14031 21 145833 20086 3.2 26 8 1 5 25% 8152 75133 11911 42%
c } 34.20 29 160 0 36 14031 21 145835 20086 3.2 26 8 1 5 25% 8152 75133 11882 42%
c 0 34.20 29 160 0 36 14031 21 145835 20086 3.2 26 8 1 5 25% 8152 75133 11882 42%
c
c ---- [ result ] ------------------------------------------------------------
c
s UNSATISFIABLE
c
c ---- [ profiling ] ---------------------------------------------------------
c
c          24.42   71.40 %  search
c          24.42   71.40 %  focused
c           9.25   27.06 %  simplify
c           8.85   25.88 %  probe
c           3.91   11.45 %  vivify
c           2.93    8.57 %  sweep
c           0.78    2.29 %  factor
c           0.66    1.93 %  eliminate
c           0.55    1.62 %  substitute
c           0.44    1.29 %  preprocess
c           0.42    1.24 %  congruence
c           0.18    0.54 %  reduce
c           0.17    0.51 %  fastel
c           0.16    0.46 %  transitive
c           0.12    0.34 %  subsume
c           0.09    0.26 %  backbone
c           0.05    0.15 %  lucky
c           0.03    0.09 %  parse
c =============================================
c          34.20  100.00 %  total
c
c ---- [ statistics ] --------------------------------------------------------
c
c chronological:                         5712                4 %  conflicts
c conflicts:                           145835             4264.44 per second
c congruent:                              270                1 %  variables
c decisions:                          3300862               22.63 per conflict
c eliminated:                           14998               53 %  variables
c factored:                              5543               19 %  variables
c fast_eliminated:                       8748               58 %  eliminated
c fast_strengthened:                       82                6 %  per strengthened
c fast_subsumed:                           76                0 %  per subsumed
c iterations:                              47                0 %  variables
c propagations:                     146335012          4279063    per second
c reductions:                              36             4051    interval
c reordered:                                5            29167    interval
c restarts:                             14031               10    interval
c strengthened:                          1466                0 %  checks
c substituted:                           6894               24 %  variables
c subsumed:                             21549                1 %  checks
c switched:                                 0                0    interval
c vivified:                             65206               14 %  checks
c
c ---- [ glue usage ] --------------------------------------------------------
c
c focused glue 1 used 246590 clauses 62.21% accumulated 62.21% tier1
c focused glue 2 used  69204 clauses 17.46% accumulated 79.66%
c focused glue 3 used  21750 clauses  5.49% accumulated 85.15%
c focused glue 4 used  14063 clauses  3.55% accumulated 88.70%
c focused glue 5 used   9253 clauses  2.33% accumulated 91.03% tier2
c
c ---- [ resources ] ---------------------------------------------------------
c
c maximum-resident-set-size:         29962240 bytes         29 MB
c process-time:                            34s              34.20 seconds
c
c ---- [ shutting down ] -----------------------------------------------------
c
c exit 20
